p cnf 40 115
a 25 1 0
e 2 3 4 5 6 7 8 9 10 11 12 13 14 15 16 17 18 19 20 21 22 23 24 26 27 28 29 30 31 32 33 34 35 36 37 38 39 40 0
3 1 0
3 -2 0
-1 2 -3 0
4 1 0
4 3 0
-1 -3 -4 0
-7 5 0
-7 -6 0
-5 6 7 0
7 6 -8 0
-7 -6 -8 0
7 -6 8 0
-7 6 8 0
-9 -4 0
-9 -8 0
4 8 9 0
11 -10 0
11 1 0
10 -1 -11 0
-13 1 0
-13 -12 0
-1 12 13 0
14 -11 0
14 -13 0
11 13 -14 0
-15 6 0
-15 7 0
-6 -7 15 0
15 -16 0
-15 -16 0
-5 -10 -17 0
5 10 -17 0
-5 10 17 0
5 -10 17 0
-18 17 0
-18 -7 0
-17 7 18 0
16 18 -19 0
-16 -18 -19 0
16 -18 19 0
-16 18 19 0
20 14 0
20 -19 0
-14 19 -20 0
9 -20 -21 0
-9 20 -21 0
9 20 21 0
-9 -20 21 0
23 5 0
23 -22 0
-5 22 -23 0
-1 -23 -24 0
1 23 -24 0
-1 23 24 0
1 -23 24 0
-25 -15 0
-25 -24 0
15 24 25 0
-26 -7 0
-26 -6 0
7 6 26 0
-27 -12 0
-27 -26 0
12 26 27 0
28 27 0
28 -26 0
-27 26 -28 0
15 -29 0
-15 -29 0
30 -29 0
30 6 0
29 -6 -30 0
31 -24 -32 0
-31 24 -32 0
31 24 32 0
-31 -24 32 0
33 30 0
33 32 0
-30 -32 -33 0
-28 33 -34 0
28 -33 -34 0
-28 -33 34 0
28 33 34 0
-35 25 0
-35 34 0
-25 -34 35 0
-36 -1 0
-36 15 0
1 -15 36 0
35 36 -37 0
-35 -36 -37 0
35 -36 37 0
-35 36 37 0
-5 -2 -38 0
5 2 -38 0
-5 2 38 0
5 -2 38 0
-39 -37 0
-39 -38 0
37 38 39 0
-21 -39 -40 0
21 39 -40 0
-21 39 40 0
21 -39 40 0
16 -15 33 17 -34 0
17 4 14 2 6 36 8 38 0
21 27 9 -26 39 -24 31 0
34 -12 -5 23 -6 33 14 0
-40 -26 -1 -5 27 -39 0
-17 -18 34 -36 -14 0
33 31 39 6 -37 0
20 -36 -33 35 22 0
-8 37 17 0
14 -36 -27 17 0
40 0
